14° run output:
{
    "Function": "euclidA500.tsp",
    "Problem dimension": [
        410,
        136,
        336,
        498,
        41,
        353,
        242,
        444,
        74,
        375,
        100,
        66,
        487,
        209,
        153,
        295,
        445,
        355,
        12,
        101,
        144,
        129,
        4,
        55,
        3,
        298,
        342,
        258,
        39,
        184,
        142,
        57,
        15,
        243,
        343,
        239,
        64,
        164,
        357,
        220,
        140,
        159,
        37,
        411,
        42,
        387,
        212,
        9,
        434,
        203,
        115,
        402,
        271,
        313,
        8,
        442,
        390,
        321,
        422,
        261,
        377,
        493,
        385,
        199,
        125,
        109,
        228,
        361,
        35,
        414,
        254,
        251,
        83,
        131,
        415,
        158,
        358,
        76,
        232,
        138,
        17,
        186,
        391,
        425,
        429,
        433,
        49,
        400,
        323,
        81,
        264,
        180,
        453,
        419,
        133,
        152,
        149,
        314,
        389,
        335,
        208,
        276,
        250,
        126,
        491,
        318,
        475,
        285,
        289,
        412,
        348,
        71,
        492,
        244,
        257,
        23,
        449,
        443,
        438,
        406,
        339,
        439,
        340,
        189,
        123,
        231,
        367,
        365,
        287,
        292,
        32,
        11,
        333,
        436,
        259,
        448,
        117,
        378,
        162,
        52,
        170,
        484,
        40,
        121,
        332,
        241,
        120,
        223,
        98,
        435,
        450,
        176,
        354,
        350,
        469,
        118,
        337,
        474,
        398,
        116,
        218,
        67,
        107,
        59,
        230,
        51,
        328,
        282,
        63,
        171,
        206,
        291,
        253,
        215,
        165,
        68,
        416,
        312,
        62,
        288,
        139,
        455,
        284,
        229,
        113,
        174,
        150,
        33,
        202,
        154,
        179,
        207,
        249,
        428,
        311,
        44,
        16,
        482,
        351,
        79,
        188,
        392,
        246,
        347,
        405,
        195,
        260,
        156,
        441,
        408,
        21,
        338,
        198,
        371,
        476,
        307,
        169,
        300,
        163,
        424,
        306,
        320,
        277,
        330,
        470,
        497,
        200,
        236,
        480,
        373,
        60,
        267,
        344,
        205,
        146,
        122,
        0,
        193,
        472,
        177,
        456,
        273,
        382,
        111,
        99,
        175,
        294,
        167,
        426,
        182,
        451,
        370,
        432,
        399,
        187,
        305,
        80,
        183,
        334,
        293,
        211,
        237,
        324,
        28,
        319,
        103,
        87,
        148,
        327,
        235,
        219,
        272,
        454,
        1,
        460,
        224,
        73,
        471,
        238,
        45,
        160,
        345,
        119,
        322,
        459,
        56,
        110,
        478,
        27,
        78,
        29,
        135,
        462,
        204,
        486,
        54,
        240,
        485,
        331,
        401,
        92,
        393,
        303,
        247,
        352,
        157,
        417,
        465,
        463,
        495,
        210,
        359,
        102,
        248,
        376,
        48,
        6,
        346,
        409,
        290,
        430,
        483,
        437,
        380,
        94,
        255,
        265,
        363,
        283,
        221,
        379,
        397,
        458,
        96,
        194,
        404,
        5,
        106,
        191,
        310,
        372,
        18,
        130,
        268,
        394,
        446,
        151,
        2,
        141,
        447,
        473,
        192,
        93,
        234,
        124,
        132,
        281,
        252,
        166,
        134,
        173,
        75,
        490,
        279,
        91,
        38,
        88,
        46,
        421,
        97,
        61,
        266,
        299,
        325,
        452,
        395,
        127,
        69,
        84,
        427,
        362,
        384,
        245,
        58,
        496,
        275,
        114,
        233,
        10,
        50,
        468,
        214,
        108,
        137,
        86,
        488,
        286,
        197,
        461,
        155,
        407,
        274,
        481,
        280,
        181,
        20,
        477,
        494,
        105,
        386,
        145,
        22,
        413,
        366,
        19,
        489,
        85,
        457,
        185,
        147,
        201,
        356,
        464,
        82,
        226,
        90,
        178,
        396,
        388,
        112,
        26,
        25,
        190,
        364,
        301,
        302,
        349,
        72,
        95,
        256,
        196,
        104,
        383,
        403,
        420,
        77,
        381,
        316,
        36,
        168,
        431,
        278,
        360,
        297,
        440,
        263,
        479,
        43,
        368,
        423,
        24,
        53,
        308,
        143,
        216,
        269,
        34,
        315,
        14,
        172,
        217,
        225,
        65,
        262,
        128,
        89,
        222,
        296,
        304,
        467,
        317,
        309,
        499,
        418,
        70,
        466,
        47,
        30,
        161,
        7,
        369,
        374,
        31,
        13,
        329,
        270,
        341,
        326,
        227,
        213
    ],
    "Global Optimum": 0,
    "Algorithm": "Genetic algorithm",
    "Parameters": {
        "population": 30,
        "offspring": 30,
        "mutation probability": 0.002,
        "crossover probability": 0.9
    },
    "Fitness": 693163,
    "Solution": [
        410,
        136,
        336,
        498,
        41,
        353,
        242,
        444,
        74,
        375,
        100,
        66,
        487,
        209,
        153,
        295,
        445,
        355,
        12,
        101,
        144,
        129,
        4,
        55,
        3,
        298,
        342,
        258,
        39,
        184,
        142,
        57,
        15,
        243,
        343,
        239,
        64,
        164,
        357,
        220,
        140,
        159,
        37,
        411,
        42,
        387,
        212,
        9,
        434,
        203,
        115,
        402,
        271,
        313,
        8,
        442,
        390,
        321,
        422,
        261,
        377,
        493,
        385,
        199,
        125,
        109,
        228,
        361,
        35,
        414,
        254,
        251,
        83,
        131,
        415,
        158,
        358,
        76,
        232,
        138,
        17,
        186,
        391,
        425,
        429,
        433,
        49,
        400,
        323,
        81,
        264,
        180,
        453,
        419,
        133,
        152,
        149,
        314,
        389,
        335,
        208,
        276,
        250,
        126,
        491,
        318,
        475,
        285,
        289,
        412,
        348,
        71,
        492,
        244,
        257,
        23,
        449,
        443,
        438,
        406,
        339,
        439,
        340,
        189,
        123,
        231,
        367,
        365,
        287,
        292,
        32,
        11,
        333,
        436,
        259,
        448,
        117,
        378,
        162,
        52,
        170,
        484,
        40,
        121,
        332,
        241,
        120,
        223,
        98,
        435,
        450,
        176,
        354,
        350,
        469,
        118,
        337,
        474,
        398,
        116,
        218,
        67,
        107,
        59,
        230,
        51,
        328,
        282,
        63,
        171,
        206,
        291,
        253,
        215,
        165,
        68,
        416,
        312,
        62,
        288,
        139,
        455,
        284,
        229,
        113,
        174,
        150,
        33,
        202,
        154,
        179,
        207,
        249,
        428,
        311,
        44,
        16,
        482,
        351,
        79,
        188,
        392,
        246,
        347,
        405,
        195,
        260,
        156,
        441,
        408,
        21,
        338,
        198,
        371,
        476,
        307,
        169,
        300,
        163,
        424,
        306,
        320,
        277,
        330,
        470,
        497,
        200,
        236,
        480,
        373,
        60,
        267,
        344,
        205,
        146,
        122,
        0,
        193,
        472,
        177,
        456,
        273,
        382,
        111,
        99,
        175,
        294,
        167,
        426,
        182,
        451,
        370,
        432,
        399,
        187,
        305,
        80,
        183,
        334,
        293,
        211,
        237,
        324,
        28,
        319,
        103,
        87,
        148,
        327,
        235,
        219,
        272,
        454,
        1,
        460,
        224,
        73,
        471,
        238,
        45,
        160,
        345,
        119,
        322,
        459,
        56,
        110,
        478,
        27,
        78,
        29,
        135,
        462,
        204,
        486,
        54,
        240,
        485,
        331,
        401,
        92,
        393,
        303,
        247,
        352,
        157,
        417,
        465,
        463,
        495,
        210,
        359,
        102,
        248,
        376,
        48,
        6,
        346,
        409,
        290,
        430,
        483,
        437,
        380,
        94,
        255,
        265,
        363,
        283,
        221,
        379,
        397,
        458,
        96,
        194,
        404,
        5,
        106,
        191,
        310,
        372,
        18,
        130,
        268,
        394,
        446,
        151,
        2,
        141,
        447,
        473,
        192,
        93,
        234,
        124,
        132,
        281,
        252,
        166,
        134,
        173,
        75,
        490,
        279,
        91,
        38,
        88,
        46,
        421,
        97,
        61,
        266,
        299,
        325,
        452,
        395,
        127,
        69,
        84,
        427,
        362,
        384,
        245,
        58,
        496,
        275,
        114,
        233,
        10,
        50,
        468,
        214,
        108,
        137,
        86,
        488,
        286,
        197,
        461,
        155,
        407,
        274,
        481,
        280,
        181,
        20,
        477,
        494,
        105,
        386,
        145,
        22,
        413,
        366,
        19,
        489,
        85,
        457,
        185,
        147,
        201,
        356,
        464,
        82,
        226,
        90,
        178,
        396,
        388,
        112,
        26,
        25,
        190,
        364,
        301,
        302,
        349,
        72,
        95,
        256,
        196,
        104,
        383,
        403,
        420,
        77,
        381,
        316,
        36,
        168,
        431,
        278,
        360,
        297,
        440,
        263,
        479,
        43,
        368,
        423,
        24,
        53,
        308,
        143,
        216,
        269,
        34,
        315,
        14,
        172,
        217,
        225,
        65,
        262,
        128,
        89,
        222,
        296,
        304,
        467,
        317,
        309,
        499,
        418,
        70,
        466,
        47,
        30,
        161,
        7,
        369,
        374,
        31,
        13,
        329,
        270,
        341,
        326,
        227,
        213
    ],
    "Nb of functions evaluations": 50010,
    "Computational time in seconds": 365.5965487957001,
    "Stopping criterion in evaluations": 50000
}